nN = 5;
nR = 30;
nH = 2;

a = [[15, 20, 23, 10, 16, 20, 20, 24, 13, 13, 11, 11, 15, 16, 18, 17, 17, 19, 20, 10, 15, 17, 12, 17, 15, 23, 22, 23, 25, 16], [18, 23, 19, 11, 14, 20, 20, 13, 20, 11, 13, 24, 14, 16, 18, 19, 19, 14, 16, 12, 11, 16, 12, 23, 12, 19, 10, 10, 22, 20], [15, 23, 11, 19, 11, 13, 16, 21, 23, 24, 13, 15, 18, 24, 21, 23, 21, 20, 25, 19, 15, 18, 17, 21, 23, 10, 11, 20, 15, 17], [18, 24, 11, 21, 22, 11, 23, 11, 16, 12, 20, 21, 15, 10, 16, 24, 20, 19, 22, 19, 24, 25, 15, 24, 19, 18, 21, 20, 15, 23], [25, 16, 21, 13, 12, 12, 16, 17, 11, 21, 22, 12, 21, 13, 20, 22, 12, 21, 14, 20, 23, 13, 25, 10, 10, 20, 12, 19, 23, 14]];
c = [[[0, 0, 0, 0, 0, 0, 0, 0, 0, 0, 0, 0, 0, 0, 0, 0, 0, 0, 0, 0, 0, 0, 0, 0, 0, 0, 0, 0, 0, 0], [36, 44, 37, 46, 30, 32, 49, 37, 35, 38, 45, 31, 31, 49, 32, 44, 38, 40, 30, 43, 34, 35, 37, 37, 44, 32, 39, 43, 32, 32], [46, 40, 39, 47, 32, 30, 30, 41, 31, 49, 42, 36, 36, 46, 40, 50, 40, 32, 50, 42, 50, 46, 31, 33, 31, 30, 35, 37, 31, 47], [32, 46, 47, 41, 44, 36, 31, 33, 41, 48, 48, 46, 35, 46, 39, 34, 30, 42, 32, 34, 48, 32, 39, 32, 49, 32, 41, 50, 38, 45], [47, 39, 45, 43, 35, 48, 43, 31, 47, 38, 45, 34, 40, 39, 31, 44, 37, 31, 38, 32, 41, 44, 31, 32, 47, 39, 30, 37, 42, 40]], [[0, 0, 0, 0, 0, 0, 0, 0, 0, 0, 0, 0, 0, 0, 0, 0, 0, 0, 0, 0, 0, 0, 0, 0, 0, 0, 0, 0, 0, 0], [0, 0, 0, 0, 0, 0, 0, 0, 0, 0, 0, 0, 0, 0, 0, 0, 0, 0, 0, 0, 0, 0, 0, 0, 0, 0, 0, 0, 0, 0], [43, 49, 33, 42, 44, 44, 45, 44, 41, 31, 35, 39, 42, 36, 47, 35, 40, 48, 43, 41, 36, 37, 42, 41, 42, 43, 35, 42, 47, 47], [38, 36, 40, 36, 32, 50, 48, 46, 49, 33, 32, 30, 35, 34, 44, 50, 49, 50, 31, 48, 50, 48, 36, 42, 44, 49, 48, 37, 45, 40], [40, 31, 45, 35, 45, 49, 48, 46, 35, 31, 48, 48, 36, 41, 38, 32, 41, 43, 37, 34, 35, 36, 50, 31, 35, 41, 39, 43, 49, 42]], [[0, 0, 0, 0, 0, 0, 0, 0, 0, 0, 0, 0, 0, 0, 0, 0, 0, 0, 0, 0, 0, 0, 0, 0, 0, 0, 0, 0, 0, 0], [0, 0, 0, 0, 0, 0, 0, 0, 0, 0, 0, 0, 0, 0, 0, 0, 0, 0, 0, 0, 0, 0, 0, 0, 0, 0, 0, 0, 0, 0], [0, 0, 0, 0, 0, 0, 0, 0, 0, 0, 0, 0, 0, 0, 0, 0, 0, 0, 0, 0, 0, 0, 0, 0, 0, 0, 0, 0, 0, 0], [48, 34, 48, 48, 34, 43, 40, 44, 35, 41, 31, 50, 47, 45, 48, 38, 32, 30, 47, 30, 46, 50, 44, 49, 39, 43, 32, 48, 41, 35], [31, 50, 32, 47, 40, 35, 49, 40, 47, 44, 34, 49, 45, 40, 34, 33, 45, 35, 40, 32, 39, 31, 37, 42, 41, 34, 41, 50, 47, 31]], [[0, 0, 0, 0, 0, 0, 0, 0, 0, 0, 0, 0, 0, 0, 0, 0, 0, 0, 0, 0, 0, 0, 0, 0, 0, 0, 0, 0, 0, 0], [0, 0, 0, 0, 0, 0, 0, 0, 0, 0, 0, 0, 0, 0, 0, 0, 0, 0, 0, 0, 0, 0, 0, 0, 0, 0, 0, 0, 0, 0], [0, 0, 0, 0, 0, 0, 0, 0, 0, 0, 0, 0, 0, 0, 0, 0, 0, 0, 0, 0, 0, 0, 0, 0, 0, 0, 0, 0, 0, 0], [0, 0, 0, 0, 0, 0, 0, 0, 0, 0, 0, 0, 0, 0, 0, 0, 0, 0, 0, 0, 0, 0, 0, 0, 0, 0, 0, 0, 0, 0], [33, 46, 41, 37, 44, 45, 46, 31, 44, 42, 43, 30, 41, 40, 46, 32, 35, 32, 46, 47, 34, 34, 43, 48, 47, 38, 39, 50, 38, 41]], [[0, 0, 0, 0, 0, 0, 0, 0, 0, 0, 0, 0, 0, 0, 0, 0, 0, 0, 0, 0, 0, 0, 0, 0, 0, 0, 0, 0, 0, 0], [0, 0, 0, 0, 0, 0, 0, 0, 0, 0, 0, 0, 0, 0, 0, 0, 0, 0, 0, 0, 0, 0, 0, 0, 0, 0, 0, 0, 0, 0], [0, 0, 0, 0, 0, 0, 0, 0, 0, 0, 0, 0, 0, 0, 0, 0, 0, 0, 0, 0, 0, 0, 0, 0, 0, 0, 0, 0, 0, 0], [0, 0, 0, 0, 0, 0, 0, 0, 0, 0, 0, 0, 0, 0, 0, 0, 0, 0, 0, 0, 0, 0, 0, 0, 0, 0, 0, 0, 0, 0], [0, 0, 0, 0, 0, 0, 0, 0, 0, 0, 0, 0, 0, 0, 0, 0, 0, 0, 0, 0, 0, 0, 0, 0, 0, 0, 0, 0, 0, 0]]];

q = [[[25, 120], [9, 116], [15, 106], [24, 106], [12, 106], [14, 120], [23, 105], [13, 107], [17, 125], [15, 120], [17, 113], [15, 122], [21, 119], [23, 112], [16, 112], [23, 125], [15, 119], [18, 107], [7, 115], [16, 107], [18, 120], [10, 121], [6, 118], [24, 112], [21, 107], [8, 125], [10, 106], [16, 112], [7, 119], [7, 120]], [[8, 105], [20, 111], [11, 107], [9, 113], [13, 113], [6, 123], [13, 107], [13, 125], [12, 117], [24, 123], [17, 125], [9, 117], [13, 105], [17, 105], [11, 116], [15, 108], [10, 119], [24, 110], [6, 107], [20, 123], [16, 123], [14, 117], [23, 125], [12, 112], [11, 105], [11, 110], [22, 124], [8, 115], [9, 125], [12, 107]], [[21, 115], [7, 115], [14, 115], [8, 119], [6, 121], [18, 117], [11, 105], [18, 113], [18, 115], [10, 121], [21, 121], [9, 124], [20, 124], [20, 105], [15, 119], [20, 108], [7, 125], [17, 118], [14, 107], [8, 113], [14, 109], [12, 109], [21, 124], [19, 119], [24, 124], [21, 120], [16, 120], [5, 119], [19, 117], [17, 122]], [[14, 120], [20, 106], [9, 106], [14, 121], [17, 115], [8, 111], [8, 118], [9, 125], [20, 116], [17, 125], [9, 115], [19, 114], [7, 124], [15, 119], [12, 107], [12, 123], [16, 108], [22, 114], [20, 123], [5, 124], [15, 121], [16, 117], [18, 110], [8, 116], [22, 119], [24, 119], [21, 120], [22, 107], [12, 117], [7, 123]], [[20, 120], [7, 111], [5, 107], [10, 108], [13, 115], [7, 106], [8, 119], [21, 107], [19, 111], [16, 106], [12, 110], [20, 125], [16, 120], [8, 116], [18, 124], [17, 110], [23, 119], [6, 112], [12, 119], [10, 106], [22, 105], [24, 125], [6, 118], [20, 124], [8, 113], [9, 113], [17, 113], [8, 123], [24, 106], [22, 112]]];
Q = [[74, 551], [65, 551], [72, 561], [70, 561], [68, 548]];
